100 10
440 445
726 410
542 606
771 697
415 239
420 782
797 715
714 219
580 497
298 457
492 559
215 553
793 545
781 917
419 500
257 445
589 167
893 387
603 828
460 403
531 586
104 595
764 802
447 658
325 309
582 773
484 514
562 509
227 526
879 715
464 506
796 432
551 374
632 502
712 360
721 661
884 714
704 387
742 724
611 722
619 836
599 352
542 537
899 706
549 318
522 826
195 373
153 379
716 609
285 634
415 475
680 787
881 557
253 223
373 258
886 573
382 680
879 817
431 480
311 392
121 311
668 514
489 187
382 666
555 750
779 944
461 136
840 919
517 268
386 537
291 785
829 718
395 585
259 537
421 711
638 359
644 673
162 540
597 538
602 706
441 608
176 354
826 386
375 690
493 508
914 696
291 313
162 499
107 471
797 668
467 574
815 620
710 937
204 507
158 189
119 244
383 520
397 649
511 375
495 90
